TCS_Benchmarks/redos_fix/corpus3_output_distinct_1868_1867_0_0.txt
(b|(c|e){1,2}|d)+
(c|e){1,2}